min: c;

c = 3.04949066782038 * u2_t7_h3 + 3.59474633127573 * u2_t7_h4 + 3.22868516277264 * u2_t2_h5 + 3.22868516277264 * u2_t3_h5 + 3.22868516277264 * u2_t7_h5 + 3.55735801937265 * u2_t2_h6 + 3.55735801937265 * u2_t3_h6 + 3.55735801937265 * u2_t4_h6 + 3.55735801937265 * u2_t7_h6 + 3.55735801937265 * u2_t10_h6 + 4.51247764404031 * u2_t2_h7 + 4.51247764404031 * u2_t3_h7 + 4.51247764404031 * u2_t4_h7 + 4.51247764404031 * u2_t7_h7 + 4.51247764404031 * u2_t10_h7 + 5.07528794555158 * u2_t2_h8 + 5.07528794555158 * u2_t3_h8 + 5.07528794555158 * u2_t4_h8 + 5.07528794555158 * u2_t7_h8 + 5.07528794555158 * u2_t10_h8 + 5.08664599616555 * u2_t2_h9 + 5.08664599616555 * u2_t3_h9 + 5.08664599616555 * u2_t4_h9 + 5.08664599616555 * u2_t7_h9 + 5.08664599616555 * u2_t10_h9 + 4.98406635040752 * u2_t2_h10 + 4.98406635040752 * u2_t3_h10 + 4.98406635040752 * u2_t4_h10 + 4.98406635040752 * u2_t7_h10 + 4.98406635040752 * u2_t10_h10 + 3.97992170937529 * u2_t1_h11 + 3.97992170937529 * u2_t2_h11 + 3.97992170937529 * u2_t3_h11 + 3.97992170937529 * u2_t4_h11 + 3.97992170937529 * u2_t7_h11 + 3.97992170937529 * u2_t10_h11 + 6.66284936232622 * u2_t1_h12 + 6.66284936232622 * u2_t3_h12 + 6.66284936232622 * u2_t4_h12 + 6.66284936232622 * u2_t7_h12 + 4.3077220006697 * u2_t1_h13 + 4.3077220006697 * u2_t3_h13 + 4.3077220006697 * u2_t4_h13 + 4.3077220006697 * u2_t7_h13 + 4.3077220006697 * u2_t9_h13 + 5.71061201231653 * u2_t1_h14 + 5.71061201231653 * u2_t3_h14 + 5.71061201231653 * u2_t4_h14 + 5.71061201231653 * u2_t7_h14 + 5.71061201231653 * u2_t9_h14 + 5.99181895184607 * u2_t1_h15 + 5.99181895184607 * u2_t3_h15 + 5.99181895184607 * u2_t4_h15 + 5.99181895184607 * u2_t7_h15 + 5.99181895184607 * u2_t9_h15 + 6.02134074801763 * u2_t1_h16 + 6.02134074801763 * u2_t3_h16 + 6.02134074801763 * u2_t4_h16 + 6.02134074801763 * u2_t7_h16 + 6.02134074801763 * u2_t9_h16 + 6.46494978402456 * u2_t1_h17 + 6.46494978402456 * u2_t3_h17 + 6.46494978402456 * u2_t4_h17 + 6.46494978402456 * u2_t7_h17 + 6.46494978402456 * u2_t9_h17 + 6.24199204023312 * u2_t1_h18 + 6.24199204023312 * u2_t3_h18 + 6.24199204023312 * u2_t4_h18 + 6.24199204023312 * u2_t6_h18 + 6.24199204023312 * u2_t7_h18 + 5.35107114356414 * u2_t1_h19 + 5.35107114356414 * u2_t3_h19 + 5.35107114356414 * u2_t4_h19 + 5.35107114356414 * u2_t5_h19 + 5.35107114356414 * u2_t6_h19 + 5.35107114356414 * u2_t7_h19 + 5.3804913317916 * u2_t1_h20 + 5.3804913317916 * u2_t3_h20 + 5.3804913317916 * u2_t4_h20 + 5.3804913317916 * u2_t6_h20 + 5.3804913317916 * u2_t7_h20 + 5.70183596309591 * u2_t1_h21 + 5.70183596309591 * u2_t3_h21 + 5.70183596309591 * u2_t6_h21 + 5.70183596309591 * u2_t7_h21 + 5.70183596309591 * u2_t8_h21 + 5.1286987466126 * u2_t1_h22 + 5.1286987466126 * u2_t3_h22 + 5.1286987466126 * u2_t7_h22 + 5.1286987466126 * u2_t8_h22 + 5.47637569410557 * u2_t3_h23 + 5.47637569410557 * u2_t7_h23 + 5.47637569410557 * u2_t8_h23;
0 <= u2_t1_h11 <= 1;
0 <= u2_t1_h12 <= 1;
0 <= u2_t1_h13 <= 1;
0 <= u2_t1_h14 <= 1;
0 <= u2_t1_h15 <= 1;
0 <= u2_t1_h16 <= 1;
0 <= u2_t1_h17 <= 1;
0 <= u2_t1_h18 <= 1;
0 <= u2_t1_h19 <= 1;
0 <= u2_t1_h20 <= 1;
0 <= u2_t1_h21 <= 1;
0 <= u2_t1_h22 <= 1;
u2_t1_h11 + u2_t1_h12 + u2_t1_h13 + u2_t1_h14 + u2_t1_h15 + u2_t1_h16 + u2_t1_h17 + u2_t1_h18 + u2_t1_h19 + u2_t1_h20 + u2_t1_h21 + u2_t1_h22 = 2;
0 <= u2_t2_h5 <= 1;
0 <= u2_t2_h6 <= 1;
0 <= u2_t2_h7 <= 1;
0 <= u2_t2_h8 <= 1;
0 <= u2_t2_h9 <= 1;
0 <= u2_t2_h10 <= 1;
0 <= u2_t2_h11 <= 1;
u2_t2_h5 + u2_t2_h6 + u2_t2_h7 + u2_t2_h8 + u2_t2_h9 + u2_t2_h10 + u2_t2_h11 = 2;
0 <= u2_t3_h5 <= 1;
0 <= u2_t3_h6 <= 1;
0 <= u2_t3_h7 <= 1;
0 <= u2_t3_h8 <= 1;
0 <= u2_t3_h9 <= 1;
0 <= u2_t3_h10 <= 1;
0 <= u2_t3_h11 <= 1;
0 <= u2_t3_h12 <= 1;
0 <= u2_t3_h13 <= 1;
0 <= u2_t3_h14 <= 1;
0 <= u2_t3_h15 <= 1;
0 <= u2_t3_h16 <= 1;
0 <= u2_t3_h17 <= 1;
0 <= u2_t3_h18 <= 1;
0 <= u2_t3_h19 <= 1;
0 <= u2_t3_h20 <= 1;
0 <= u2_t3_h21 <= 1;
0 <= u2_t3_h22 <= 1;
0 <= u2_t3_h23 <= 1;
u2_t3_h5 + u2_t3_h6 + u2_t3_h7 + u2_t3_h8 + u2_t3_h9 + u2_t3_h10 + u2_t3_h11 + u2_t3_h12 + u2_t3_h13 + u2_t3_h14 + u2_t3_h15 + u2_t3_h16 + u2_t3_h17 + u2_t3_h18 + u2_t3_h19 + u2_t3_h20 + u2_t3_h21 + u2_t3_h22 + u2_t3_h23 = 1;
0 <= u2_t4_h6 <= 1;
0 <= u2_t4_h7 <= 1;
0 <= u2_t4_h8 <= 1;
0 <= u2_t4_h9 <= 1;
0 <= u2_t4_h10 <= 1;
0 <= u2_t4_h11 <= 1;
0 <= u2_t4_h12 <= 1;
0 <= u2_t4_h13 <= 1;
0 <= u2_t4_h14 <= 1;
0 <= u2_t4_h15 <= 1;
0 <= u2_t4_h16 <= 1;
0 <= u2_t4_h17 <= 1;
0 <= u2_t4_h18 <= 1;
0 <= u2_t4_h19 <= 1;
0 <= u2_t4_h20 <= 1;
u2_t4_h6 + u2_t4_h7 + u2_t4_h8 + u2_t4_h9 + u2_t4_h10 + u2_t4_h11 + u2_t4_h12 + u2_t4_h13 + u2_t4_h14 + u2_t4_h15 + u2_t4_h16 + u2_t4_h17 + u2_t4_h18 + u2_t4_h19 + u2_t4_h20 = 3;
0 <= u2_t5_h19 <= 1;
u2_t5_h19 = 1;
0 <= u2_t6_h18 <= 1;
0 <= u2_t6_h19 <= 1;
0 <= u2_t6_h20 <= 1;
0 <= u2_t6_h21 <= 1;
u2_t6_h18 + u2_t6_h19 + u2_t6_h20 + u2_t6_h21 = 2;
0 <= u2_t7_h3 <= 1;
0 <= u2_t7_h4 <= 1;
0 <= u2_t7_h5 <= 1;
0 <= u2_t7_h6 <= 1;
0 <= u2_t7_h7 <= 1;
0 <= u2_t7_h8 <= 1;
0 <= u2_t7_h9 <= 1;
0 <= u2_t7_h10 <= 1;
0 <= u2_t7_h11 <= 1;
0 <= u2_t7_h12 <= 1;
0 <= u2_t7_h13 <= 1;
0 <= u2_t7_h14 <= 1;
0 <= u2_t7_h15 <= 1;
0 <= u2_t7_h16 <= 1;
0 <= u2_t7_h17 <= 1;
0 <= u2_t7_h18 <= 1;
0 <= u2_t7_h19 <= 1;
0 <= u2_t7_h20 <= 1;
0 <= u2_t7_h21 <= 1;
0 <= u2_t7_h22 <= 1;
0 <= u2_t7_h23 <= 1;
u2_t7_h3 + u2_t7_h4 + u2_t7_h5 + u2_t7_h6 + u2_t7_h7 + u2_t7_h8 + u2_t7_h9 + u2_t7_h10 + u2_t7_h11 + u2_t7_h12 + u2_t7_h13 + u2_t7_h14 + u2_t7_h15 + u2_t7_h16 + u2_t7_h17 + u2_t7_h18 + u2_t7_h19 + u2_t7_h20 + u2_t7_h21 + u2_t7_h22 + u2_t7_h23 = 3;
0 <= u2_t8_h21 <= 1;
0 <= u2_t8_h22 <= 1;
0 <= u2_t8_h23 <= 1;
u2_t8_h21 + u2_t8_h22 + u2_t8_h23 = 2;
0 <= u2_t9_h13 <= 1;
0 <= u2_t9_h14 <= 1;
0 <= u2_t9_h15 <= 1;
0 <= u2_t9_h16 <= 1;
0 <= u2_t9_h17 <= 1;
u2_t9_h13 + u2_t9_h14 + u2_t9_h15 + u2_t9_h16 + u2_t9_h17 = 1;
0 <= u2_t10_h6 <= 1;
0 <= u2_t10_h7 <= 1;
0 <= u2_t10_h8 <= 1;
0 <= u2_t10_h9 <= 1;
0 <= u2_t10_h10 <= 1;
0 <= u2_t10_h11 <= 1;
u2_t10_h6 + u2_t10_h7 + u2_t10_h8 + u2_t10_h9 + u2_t10_h10 + u2_t10_h11 = 2;
